71
125
87	3
86	2
85	2
84	2
83	2
82	2
81	1
80	1
79	6
78	4
77	6
76	3
75	2
74	3
73	4
72	1
71	2
70	2
69	4
68	2
67	4
66	1
65	4
64	3
63	4
61	2
60	4
59	2
58	2
57	2
56	3
55	2
54	2
53	2
52	4
51	2
50	1
49	1
48	5
47	2
46	3
45	4
44	3
43	5
42	4
41	1
40	2
38	5
37	4
36	4
35	2
34	3
33	1
32	3
31	3
30	5
29	2
28	4
26	4
25	1
24	4
23	6
22	2
21	1
20	1
19	6
18	1
16	3
15	1
13	2
12	4
